20
80.0
0 19 66.12 5.25
1 18 64.75 6.25
2 17 65.3 6.36
3 16 63.29 6.19
4 15 64.98 6.03
5 14 64.98 6.51
6 13 65.74 5.75
7 12 65.02 5.16
8 11 64.34 6.61
9 10 64.27 5.88
10 9 66.41 4.91
11 8 64.27 4.1
12 7 61.47 5.73
13 6 64.43 7.96
14 5 63.79 6.53
15 4 64.68 6.46
16 3 65.79 4.57
17 2 67.6 4.5
18 1 62.55 5.14
